objective=
b=1 type=0 x=179 y=131
b=2 type=0 x=136 y=128
b=3 type=0 x=220 y=127
b=4 type=0 x=122 y=120
b=5 type=1 x=192 y=118
b=6 type=1 x=179 y=118
b=7 type=1 x=135 y=103
b=8 type=1 x=199 y=98
b=9 type=2 x=227 y=63
b=10 type=2 x=209 y=63
b=11 type=2 x=191 y=63
b=12 type=2 x=93 y=45
b=13 type=3 x=68 y=39
b=14 type=3 x=44 y=232
b=15 type=3 x=35 y=80
b=16 type=4 x=156 y=87
b=17 type=4 x=237 y=83
b=18 type=4 x=5 y=33
b=19 type=5 x=93 y=31
b=20 type=5 x=20 y=148
b=21 type=5 x=5 y=19
b=22 type=6 x=212 y=99
b=23 type=6 x=183 y=83
b=24 type=7 x=11 y=71
b=25 type=7 x=5 y=70
b=26 type=7 x=5 y=68
b=27 type=8 x=80 y=199
b=28 type=8 x=71 y=217
b=29 type=8 x=62 y=232
b=30 type=8 x=19 y=102
b=31 type=9 x=145 y=140
b=32 type=9 x=220 y=139
b=33 type=9 x=199 y=131
b=34 type=9 x=151 y=100
b=35 type=10 x=30 y=129
b=36 type=10 x=30 y=122
b=37 type=10 x=25 y=89
b=38 type=10 x=5 y=46
b=39 type=11 x=179 y=155
b=40 type=11 x=201 y=154
b=41 type=11 x=147 y=151
b=42 type=12 x=120 y=203
b=43 type=12 x=117 y=188
b=44 type=12 x=117 y=171
b=45 type=13 x=220 y=150
b=46 type=13 x=179 y=143
b=47 type=13 x=201 y=142
b=48 type=14 x=218 y=83
b=49 type=14 x=199 y=83
b=50 type=14 x=123 y=67
b=51 type=15 x=113 y=232
b=52 type=15 x=109 y=202
b=53 type=15 x=106 y=179
b=54 type=16 x=106 y=1
b=55 type=16 x=102 y=232
b=56 type=16 x=78 y=207
b=57 type=17 x=25 y=110
b=58 type=17 x=245 y=64
b=59 type=17 x=123 y=47
b=60 type=18 x=93 y=5
b=61 type=18 x=123 y=1
b=62 type=18 x=73 y=1
b=63 type=19 x=98 y=202
b=64 type=19 x=91 y=232
b=65 type=19 x=80 y=232
b=66 type=20 x=32 y=60
b=67 type=20 x=5 y=55
b=68 type=20 x=1 y=89
----------
